# Objective value = 1.9071284764860432e+03
x[0] 0
x[1] 1
x[2] 0
x[3] 0
x[4] 0
x[5] 0
x[6] 0
x[7] 1
x[8] 1
x[9] 0
x[10] 0
x[11] 1
x[12] 0
x[13] 0
x[14] 0
x[15] 1
x[16] 0
x[17] 0
x[18] 1
x[19] 1
x[20] 1
x[21] 0
x[22] 1
x[23] 1
x[24] 1
x[25] 1
x[26] 1
x[27] 0
x[28] 1
x[29] 1
x[30] 1
x[31] 0
x[32] 1
x[33] 1
x[34] 1
x[35] 1
x[36] 1
x[37] 1
x[38] 1
x[39] 0
x[40] 1
x[41] 0
x[42] 1
x[43] 1
x[44] 0
x[45] 1
x[46] 0
x[47] 0
x[48] 1
x[49] 1
x[50] 0
x[51] 0
x[52] 1
x[53] 0
x[54] 1
x[55] 0
x[56] 1
x[57] 1
x[58] 0
x[59] 0
x[60] 0
x[61] 0
x[62] 1
x[63] 1
x[64] 0
x[65] 0
x[66] 0
x[67] 1
x[68] 1
x[69] 1
x[70] 1
x[71] 0
x[72] 0
x[73] 1
x[74] 0
x[75] 0
x[76] 1
x[77] 1
x[78] 1
x[79] 1
x[80] 0
x[81] 1
x[82] 0
x[83] 1
x[84] 1
x[85] 1
x[86] 1
x[87] 1
x[88] 0
x[89] 1
x[90] 0
x[91] 1
x[92] 1
x[93] 0
x[94] 0
x[95] 1
x[96] 0
x[97] 1
x[98] 1
x[99] 0
x[100] 1
x[101] 0
x[102] 0
x[103] 0
x[104] 1
x[105] 0
x[106] 1
x[107] 1
x[108] 0
x[109] 1
x[110] 1
x[111] 0
x[112] 1
x[113] 0
x[114] 0
x[115] 1
x[116] 1
x[117] 0
x[118] 0
x[119] 0
x[120] 0
x[121] 1
x[122] 0
x[123] 1
x[124] 1
x[125] 0
x[126] 1
x[127] 0
x[128] 1
x[129] 1
x[130] 1
x[131] 1
x[132] 1
x[133] 1
x[134] 1
x[135] 0
x[136] 1
x[137] 0
x[138] 0
x[139] 0
x[140] 1
x[141] 0
x[142] 1
x[143] 0
x[144] 1
x[145] 0
x[146] 1
x[147] 1
x[148] 0
x[149] 1
x[150] 1
x[151] 0
x[152] 1
x[153] 1
x[154] 0
x[155] 1
x[156] 0
x[157] 1
x[158] 0
x[159] 0
x[160] 1
x[161] 0
x[162] 1
x[163] 1
x[164] 1
x[165] 1
x[166] 0
x[167] 1
x[168] 1
x[169] 1
x[170] 0
x[171] 1
x[172] 0
x[173] 1
x[174] 1
x[175] 0
x[176] 0
x[177] 1
x[178] 1
x[179] 0
x[180] 0
x[181] 1
x[182] 0
x[183] 1
x[184] 1
x[185] 1
x[186] 1
x[187] 1
x[188] 1
x[189] 1
x[190] 1
x[191] 1
x[192] 0
x[193] 0
x[194] 1
x[195] 0
x[196] 0
x[197] 0
x[198] 1
x[199] 0
x[200] 1
x[201] 1
x[202] 0
x[203] 1
x[204] 1
x[205] 1
x[206] 1
x[207] 0
x[208] 1
x[209] 1
x[210] 0
x[211] 1
x[212] 1
x[213] 0
x[214] 0
x[215] 0
x[216] 1
x[217] 0
x[218] 0
x[219] 1
x[220] 1
x[221] 0
x[222] 1
x[223] 1
x[224] 0
x[225] 1
x[226] 1
x[227] 1
x[228] 1
x[229] 1
x[230] 0
x[231] 0
x[232] 0
x[233] 1
x[234] 1
x[235] 1
x[236] 1
x[237] 1
x[238] 1
x[239] 0
x[240] 1
x[241] 1
x[242] 0
x[243] 1
x[244] 1
x[245] 1
x[246] 0
x[247] 1
x[248] 1
x[249] 1
x[250] 0
x[251] 1
x[252] 0
x[253] 0
x[254] 1
x[255] 0
x[256] 1
x[257] 0
x[258] 1
x[259] 0
x[260] 1
x[261] 1
x[262] 1
x[263] 0
x[264] 1
x[265] 0
x[266] 0
x[267] 0
x[268] 1
x[269] 0
x[270] 0
x[271] 0
x[272] 0
x[273] 1
x[274] 1
x[275] 0
x[276] 1
x[277] 1
x[278] 0
x[279] 1
x[280] 0
x[281] 0
x[282] 1
x[283] 1
x[284] 1
x[285] 0
x[286] 1
x[287] 1
x[288] 0
x[289] 0
x[290] 0
x[291] 1
x[292] 0
x[293] 1
x[294] 1
x[295] 0
x[296] 0
x[297] 1
x[298] 0
x[299] 0
x[300] 1
x[301] 0
x[302] 1
x[303] 1
x[304] 1
x[305] 0
x[306] 1
x[307] 0
x[308] 1
x[309] 1
x[310] 0
x[311] 1
x[312] 1
x[313] 1
x[314] 0
x[315] 1
x[316] 1
x[317] 0
x[318] 0
x[319] 1
x[320] 0
x[321] 1
x[322] 1
x[323] 1
x[324] 0
x[325] 0
x[326] 0
x[327] 0
x[328] 0
x[329] 0
x[330] 0
x[331] 1
x[332] 0
x[333] 1
x[334] 0
x[335] 1
x[336] 1
x[337] 1
x[338] 1
x[339] 1
x[340] 1
x[341] 0
x[342] 1
x[343] 0
x[344] 0
x[345] 1
x[346] 1
x[347] 0
x[348] 1
x[349] 0
x[350] 1
x[351] 0
x[352] 1
x[353] 1
x[354] 1
x[355] 1
x[356] 0
x[357] 0
x[358] 1
x[359] 0
x[360] 1
x[361] 1
x[362] 1
x[363] 1
x[364] 0
x[365] 1
x[366] 1
x[367] 1
x[368] 0
x[369] 0
x[370] 1
x[371] 1
x[372] 1
x[373] 1
x[374] 0
x[375] 1
x[376] 1
x[377] 0
x[378] 0
x[379] 1
x[380] 1
x[381] 1
x[382] 1
x[383] 0
x[384] 1
x[385] 1
x[386] 0
x[387] 1
x[388] 1
x[389] 1
x[390] 0
x[391] 1
x[392] 1
x[393] 1
x[394] 0
x[395] 1
x[396] 1
x[397] 0
x[398] 0
x[399] 1
x[400] 1
x[401] 1
x[402] 1
x[403] 0
x[404] 1
x[405] 1
x[406] 1
x[407] 1
x[408] 1
x[409] 1
x[410] 1
x[411] 0
x[412] 1
x[413] 1
x[414] 0
x[415] 0
x[416] 1
x[417] 1
x[418] 1
x[419] 1
x[420] 1
x[421] 0
x[422] 1
x[423] 1
x[424] 1
x[425] 1
x[426] 1
x[427] 0
x[428] 0
x[429] 0
x[430] 1
x[431] 0
x[432] 0
x[433] 0
x[434] 1
x[435] 0
x[436] 1
x[437] 0
x[438] 1
x[439] 1
x[440] 0
x[441] 1
x[442] 1
x[443] 1
x[444] 0
x[445] 0
x[446] 1
x[447] 1
x[448] 0
x[449] 1
x[450] 0
x[451] 1
x[452] 1
x[453] 1
x[454] 1
x[455] 0
x[456] 1
x[457] 0
x[458] 1
x[459] 0
x[460] 0
x[461] 0
x[462] 1
x[463] 0
x[464] 1
x[465] 0
x[466] 1
x[467] 1
x[468] 1
x[469] 1
x[470] 0
x[471] 1
x[472] 1
x[473] 0
x[474] 0
x[475] 0
x[476] 0
x[477] 1
x[478] 0
x[479] 1
x[480] 1
x[481] 0
x[482] 0
x[483] 0
x[484] 0
x[485] 0
x[486] 0
x[487] 1
x[488] 0
x[489] 1
x[490] 1
x[491] 1
x[492] 0
x[493] 1
x[494] 0
x[495] 1
x[496] 1
x[497] 1
x[498] 1
x[499] 0
x[500] 1
x[501] 0
x[502] 1
x[503] 0
x[504] 1
x[505] 0
x[506] 1
x[507] 0
x[508] 1
x[509] 1
x[510] 1
x[511] 1
x[512] 1
x[513] 1
x[514] 0
x[515] 0
x[516] 1
x[517] 1
x[518] 0
x[519] 1
x[520] 1
x[521] 1
x[522] 1
x[523] 1
x[524] 1
x[525] 1
x[526] 1
x[527] 1
x[528] 0
x[529] 0
x[530] 0
x[531] 0
x[532] 0
x[533] 0
x[534] 0
x[535] 0
x[536] 1
x[537] 1
x[538] 1
x[539] 1
x[540] 1
x[541] 1
x[542] 1
x[543] 1
x[544] 1
x[545] 0
x[546] 0
x[547] 0
x[548] 1
x[549] 0
x[550] 1
x[551] 0
x[552] 0
x[553] 1
x[554] 1
x[555] 1
x[556] 1
x[557] 0
x[558] 1
x[559] 1
x[560] 0
x[561] 0
x[562] 1
x[563] 1
x[564] 1
x[565] 1
x[566] 0
x[567] 0
x[568] 1
x[569] 1
x[570] 0
x[571] 1
x[572] 1
x[573] 0
x[574] 0
x[575] 0
x[576] 0
x[577] 0
x[578] 1
x[579] 0
x[580] 0
x[581] 1
x[582] 0
x[583] 1
x[584] 1
x[585] 1
x[586] 1
x[587] 1
x[588] 1
x[589] 0
x[590] 1
x[591] 1
x[592] 0
x[593] 1
x[594] 0
x[595] 1
x[596] 0
x[597] 1
x[598] 0
x[599] 0
x[600] 0
x[601] 1
x[602] 0
x[603] 0
x[604] 0
x[605] 0
x[606] 1
x[607] 1
x[608] 0
x[609] 0
x[610] 0
x[611] 1
x[612] 1
x[613] 1
x[614] 1
x[615] 1
x[616] 1
x[617] 1
x[618] 1
x[619] 0
x[620] 0
x[621] 1
x[622] 0
x[623] 1
x[624] 0
x[625] 1
x[626] 1
x[627] 1
x[628] 0
x[629] 0
x[630] 1
x[631] 1
x[632] 1
x[633] 0
x[634] 0
x[635] 0
x[636] 0
x[637] 1
x[638] 1
x[639] 1
x[640] 0
x[641] 1
x[642] 1
x[643] 1
x[644] 1
x[645] 1
x[646] 1
x[647] 1
x[648] 0
x[649] 1
x[650] 1
x[651] 1
x[652] 0
x[653] 0
x[654] 1
x[655] 0
x[656] 0
x[657] 1
x[658] 1
x[659] 0
x[660] 0
x[661] 0
x[662] 0
x[663] 1
x[664] 0
x[665] 1
x[666] 1
x[667] 0
x[668] 0
x[669] 1
x[670] 1
x[671] 0
x[672] 1
x[673] 0
x[674] 0
x[675] 0
x[676] 1
x[677] 0
x[678] 1
x[679] 1
x[680] 0
x[681] 1
x[682] 1
x[683] 0
x[684] 0
x[685] 0
x[686] 0
x[687] 0
x[688] 1
x[689] 0
x[690] 0
x[691] 0
x[692] 0
x[693] 1
x[694] 0
x[695] 0
x[696] 0
x[697] 1
x[698] 0
x[699] 0
x[700] 1
x[701] 1
x[702] 0
x[703] 0
x[704] 0
x[705] 1
x[706] 1
x[707] 0
x[708] 0
x[709] 1
x[710] 0
x[711] 0
x[712] 0
x[713] 0
x[714] 1
x[715] 1
x[716] 1
x[717] 1
x[718] 1
x[719] 0
x[720] 0
x[721] 0
x[722] 1
x[723] 1
x[724] 0
x[725] 1
x[726] 0
x[727] 1
x[728] 1
x[729] 1
x[730] 1
x[731] 0
x[732] 1
x[733] 0
x[734] 0
x[735] 0
x[736] 0
x[737] 1
x[738] 1
x[739] 1
x[740] 0
x[741] 1
x[742] 1
x[743] 0
x[744] 1
x[745] 1
x[746] 1
x[747] 0
x[748] 0
x[749] 0
x[750] 1
x[751] 1
x[752] 1
x[753] 1
x[754] 0
x[755] 1
x[756] 0
x[757] 1
x[758] 0
x[759] 0
x[760] 1
x[761] 1
x[762] 1
x[763] 0
x[764] 1
x[765] 0
x[766] 0
x[767] 1
x[768] 0
x[769] 1
x[770] 1
x[771] 0
x[772] 1
x[773] 1
x[774] 0
x[775] 1
x[776] 1
x[777] 0
x[778] 1
x[779] 0
x[780] 0
x[781] 0
x[782] 0
x[783] 0
x[784] 0
x[785] 0
x[786] 1
x[787] 1
x[788] 1
x[789] 0
x[790] 0
x[791] 1
x[792] 1
x[793] 1
x[794] 0
x[795] 1
x[796] 0
x[797] 0
x[798] 0
x[799] 1
x[800] 1
x[801] 0
x[802] 0
x[803] 0
x[804] 1
x[805] 0
x[806] 1
x[807] 0
x[808] 0
x[809] 0
x[810] 0
x[811] 1
x[812] 1
x[813] 0
x[814] 1
x[815] 0
x[816] 1
x[817] 1
x[818] 0
x[819] 0
x[820] 1
x[821] 1
x[822] 0
x[823] 0
x[824] 1
x[825] 1
x[826] 0
x[827] 1
x[828] 0
x[829] 1
x[830] 0
x[831] 1
x[832] 0
x[833] 0
x[834] 1
x[835] 1
x[836] 1
x[837] 1
x[838] 0
x[839] 0
x[840] 0
x[841] 1
x[842] 0
x[843] 0
x[844] 1
x[845] 0
x[846] 1
x[847] 1
x[848] 0
x[849] 1
x[850] 0
x[851] 1
x[852] 1
x[853] 1
x[854] 0
x[855] 0
x[856] 0
x[857] 0
x[858] 1
x[859] 1
x[860] 0
x[861] 0
x[862] 1
x[863] 1
x[864] 1
x[865] 0
x[866] 0
x[867] 1
x[868] 0
x[869] 0
x[870] 1
x[871] 0
x[872] 0
x[873] 0
x[874] 1
x[875] 1
x[876] 1
x[877] 1
x[878] 0
x[879] 0
x[880] 0
x[881] 1
x[882] 1
x[883] 1
x[884] 1
x[885] 0
x[886] 0
x[887] 1
x[888] 0
x[889] 0
x[890] 1
x[891] 0
x[892] 1
x[893] 0
x[894] 0
x[895] 1
x[896] 1
x[897] 0
x[898] 1
x[899] 0
x[900] 1
x[901] 0
x[902] 1
x[903] 0
x[904] 0
x[905] 1
x[906] 1
x[907] 0
x[908] 0
x[909] 0
x[910] 1
x[911] 1
x[912] 0
x[913] 1
x[914] 1
x[915] 1
x[916] 0
x[917] 1
x[918] 0
x[919] 1
x[920] 1
x[921] 0
x[922] 1
x[923] 1
x[924] 1
x[925] 1
x[926] 1
x[927] 0
x[928] 1
x[929] 0
x[930] 0
x[931] 1
x[932] 0
x[933] 0
x[934] 1
x[935] 1
x[936] 0
x[937] 1
x[938] 0
x[939] 1
x[940] 1
x[941] 0
x[942] 1
x[943] 1
x[944] 0
x[945] 1
x[946] 1
x[947] 0
x[948] 0
x[949] 1
x[950] 1
x[951] 0
x[952] 1
x[953] 0
x[954] 0
x[955] 1
x[956] 1
x[957] 1
x[958] 0
x[959] 1
x[960] 1
x[961] 1
x[962] 1
x[963] 1
x[964] 1
x[965] 0
x[966] 0
x[967] 1
x[968] 1
x[969] 1
x[970] 0
x[971] 1
x[972] 1
x[973] 1
x[974] 0
x[975] 0
x[976] 0
x[977] 1
x[978] 0
x[979] 0
x[980] 0
x[981] 1
x[982] 0
x[983] 1
x[984] 0
x[985] 1
x[986] 0
x[987] 1
x[988] 1
x[989] 1
x[990] 0
x[991] 1
x[992] 1
x[993] 1
x[994] 0
x[995] 1
x[996] 1
x[997] 0
x[998] 1
x[999] 1
